

../data-atsp/rbg443.atsp steepest
    1	 0.15	 0.16	 0.14	 0.17	 0.16	 0.16	 0.16	 0.15	 0.13 
 0.15	 1	     0.16	 0.18	 0.15	 0.17	 0.16	 0.15	 0.16	 0.17 
 0.16	 0.16	    1	 0.17	 0.16	 0.17	 0.19	 0.16	 0.17	 0.17 
 0.14	 0.18 	 0.17	    1	 0.19	 0.19	 0.17	 0.16	 0.15	 0.17 
 0.17	 0.15	 0.16	 0.19	    1	 0.16	 0.16	 0.16	 0.15	 0.15 
 0.16	 0.17	 0.17	 0.19	 0.16	    1	  0.2	 0.18	 0.15	 0.17 
 0.16	 0.16	 0.19	 0.17	 0.16	  0.2	    1	 0.18	 0.19	 0.14 
 0.16	 0.15	 0.16	 0.16	 0.16	 0.18	 0.18	    1	 0.18	 0.18 
 0.15	 0.16	 0.17	 0.15	 0.15	 0.15	 0.19	 0.18	    1	 0.16 
 0.13	 0.17	 0.17	 0.17	 0.15	 0.17	 0.14	 0.18	 0.16	    1
  

../data-atsp/rbg403.atsp steepest
    1	 0.17	 0.17	 0.15	 0.16	 0.18	 0.15	 0.16	 0.16	 0.17	
 0.17	    1	 0.16	 0.13	 0.16	 0.17	 0.17	 0.15	 0.16	 0.15	
 0.17	 0.16	    1	 0.16	  0.2	 0.18	 0.17	 0.15	 0.17	 0.17	
 0.15	 0.13	 0.16	    1	 0.17	 0.15	 0.19	 0.18	 0.16	 0.17	
 0.16	 0.16	  0.2	 0.17	    1	 0.17	 0.17	 0.15	 0.17	 0.14	
 0.18	 0.17	 0.18	 0.15	 0.17	    1	 0.15	 0.15	 0.17	 0.15	
 0.15	 0.17	 0.17	 0.19	 0.17	 0.15	    1	 0.14	 0.16	 0.16	
 0.16	 0.15	 0.15	 0.18	 0.15	 0.15	 0.14	    1	 0.16	 0.17	
 0.16	 0.16	 0.17	 0.16	 0.17	 0.17	 0.16	 0.16	    1	 0.17	
 0.17	 0.15	 0.17	 0.17	 0.14	 0.15	 0.16	 0.17	 0.17	    1	

